letting n =  10
letting blocks =  [[1, 3], [1, 4], [2, 2], [2, 6], [2, 7], [4, 1], [4, 2], [4, 9], [4, 10], [5, 2], [5, 10], [6, 3], [6, 6], [6, 7], [7, 1], [7, 3], [7, 4], [7, 5], [7, 10], [9, 1], [9, 6], [10, 1], [10, 8], [10, 10]]
